c Maximum weighted clique instances generated from exactcolors.
c cutoff: 17179869.
c A clique of value > scalef (17179869) defines an improving stable sets for coloring.
p edge 125 789
e 1 8
e 1 27
e 1 39
e 1 44
e 1 68
e 1 83
e 1 85
e 1 99
e 1 106
e 2 15
e 2 21
e 2 29
e 2 31
e 2 35
e 2 40
e 2 42
e 2 49
e 2 51
e 2 64
e 2 84
e 2 93
e 2 94
e 2 98
e 2 111
e 2 124
e 3 59
e 3 61
e 3 87
e 3 88
e 3 90
e 3 102
e 3 113
e 3 122
e 3 123
e 4 6
e 4 15
e 4 22
e 4 39
e 4 40
e 4 41
e 4 60
e 4 61
e 4 63
e 4 70
e 4 116
e 4 117
e 5 23
e 5 27
e 5 33
e 5 44
e 5 45
e 5 63
e 5 64
e 5 70
e 5 72
e 5 75
e 5 77
e 5 81
e 5 91
e 5 94
e 5 98
e 5 99
e 5 100
e 5 101
e 5 103
e 5 106
e 5 108
e 6 7
e 6 59
e 6 61
e 6 67
e 6 68
e 6 72
e 6 80
e 6 85
e 6 107
e 6 110
e 6 121
e 7 8
e 7 24
e 7 34
e 7 43
e 7 47
e 7 48
e 7 50
e 7 63
e 7 70
e 7 80
e 7 86
e 7 100
e 7 115
e 8 17
e 8 22
e 8 23
e 8 26
e 8 50
e 8 53
e 8 58
e 8 62
e 8 67
e 8 93
e 8 97
e 8 99
e 8 104
e 8 108
e 9 19
e 9 25
e 9 42
e 9 55
e 9 68
e 9 72
e 9 114
e 10 17
e 10 35
e 10 57
e 10 90
e 10 100
e 10 105
e 10 123
e 10 124
e 11 19
e 11 20
e 11 33
e 11 53
e 11 60
e 11 67
e 11 74
e 11 80
e 11 81
e 11 86
e 11 87
e 11 99
e 12 19
e 12 20
e 12 38
e 12 42
e 12 54
e 12 61
e 12 86
e 12 94
e 12 98
e 12 113
e 12 115
e 12 125
e 13 25
e 13 53
e 13 56
e 13 60
e 13 62
e 13 72
e 13 81
e 13 83
e 13 100
e 13 102
e 13 116
e 13 124
e 14 24
e 14 29
e 14 30
e 14 35
e 14 36
e 14 39
e 14 42
e 14 52
e 14 64
e 14 80
e 14 84
e 14 99
e 14 111
e 15 25
e 15 39
e 15 41
e 15 57
e 15 62
e 15 72
e 15 83
e 15 96
e 15 102
e 15 107
e 15 111
e 15 117
e 15 121
e 16 25
e 16 28
e 16 30
e 16 38
e 16 46
e 16 48
e 16 65
e 16 73
e 16 81
e 16 92
e 16 103
e 16 106
e 17 41
e 17 45
e 17 46
e 17 51
e 17 52
e 17 63
e 17 74
e 17 91
e 17 92
e 17 113
e 17 120
e 17 123
e 17 124
e 17 125
e 18 21
e 18 26
e 18 40
e 18 44
e 18 54
e 18 57
e 18 59
e 18 69
e 18 83
e 18 111
e 18 114
e 18 116
e 18 118
e 19 21
e 19 23
e 19 39
e 19 42
e 19 60
e 19 63
e 19 80
e 19 84
e 19 86
e 19 88
e 19 96
e 19 106
e 19 115
e 19 122
e 20 26
e 20 36
e 20 37
e 20 39
e 20 45
e 20 46
e 20 69
e 20 71
e 20 79
e 20 85
e 20 98
e 20 99
e 20 101
e 20 109
e 20 119
e 20 124
e 21 23
e 21 24
e 21 29
e 21 34
e 21 50
e 21 64
e 21 66
e 21 68
e 21 77
e 21 96
e 21 114
e 21 121
e 22 41
e 22 45
e 22 50
e 22 61
e 22 62
e 22 67
e 22 85
e 22 87
e 22 94
e 22 121
e 23 29
e 23 33
e 23 35
e 23 44
e 23 49
e 23 59
e 23 76
e 23 102
e 23 103
e 23 110
e 23 111
e 23 123
e 24 25
e 24 31
e 24 45
e 24 60
e 24 65
e 24 72
e 24 81
e 24 89
e 24 92
e 24 93
e 24 96
e 24 102
e 24 107
e 24 116
e 25 31
e 25 45
e 25 47
e 25 54
e 25 55
e 25 60
e 25 70
e 25 81
e 25 86
e 25 88
e 25 91
e 26 28
e 26 42
e 26 52
e 26 60
e 26 75
e 26 79
e 26 86
e 26 94
e 26 97
e 26 112
e 26 122
e 27 45
e 27 54
e 27 55
e 27 68
e 27 94
e 27 104
e 27 114
e 27 116
e 27 122
e 28 47
e 28 62
e 28 67
e 28 69
e 28 76
e 28 85
e 28 97
e 28 100
e 28 112
e 28 113
e 28 114
e 28 117
e 28 121
e 28 125
e 29 40
e 29 55
e 29 60
e 29 62
e 29 75
e 29 77
e 29 102
e 29 120
e 29 121
e 30 31
e 30 51
e 30 54
e 30 58
e 30 61
e 30 63
e 30 75
e 30 79
e 30 82
e 30 88
e 30 90
e 30 101
e 30 111
e 30 119
e 30 125
e 31 32
e 31 33
e 31 44
e 31 48
e 31 55
e 31 87
e 31 98
e 31 109
e 31 112
e 31 113
e 32 33
e 32 35
e 32 54
e 32 63
e 32 77
e 32 82
e 32 105
e 33 38
e 33 40
e 33 54
e 33 58
e 33 63
e 33 64
e 33 73
e 33 92
e 33 103
e 34 64
e 34 81
e 34 82
e 34 86
e 34 91
e 34 110
e 34 113
e 35 42
e 35 52
e 35 59
e 35 64
e 35 76
e 35 105
e 35 106
e 36 41
e 36 45
e 36 55
e 36 62
e 36 82
e 36 119
e 36 123
e 36 125
e 37 64
e 37 69
e 37 71
e 37 74
e 37 80
e 37 91
e 37 110
e 37 111
e 38 42
e 38 58
e 38 61
e 38 85
e 38 119
e 38 125
e 39 43
e 39 47
e 39 71
e 39 75
e 39 92
e 39 97
e 40 48
e 40 56
e 40 83
e 40 99
e 40 124
e 41 59
e 41 76
e 41 80
e 41 86
e 41 94
e 41 103
e 41 116
e 41 122
e 41 125
e 42 43
e 42 44
e 42 63
e 42 64
e 42 77
e 42 85
e 42 93
e 42 109
e 42 110
e 43 61
e 43 84
e 43 88
e 43 90
e 43 93
e 43 98
e 43 125
e 44 45
e 44 59
e 44 61
e 44 66
e 44 90
e 44 115
e 44 116
e 44 118
e 45 48
e 45 55
e 45 56
e 45 76
e 45 79
e 45 86
e 45 91
e 45 117
e 45 124
e 46 47
e 46 49
e 46 50
e 46 56
e 46 64
e 46 68
e 46 73
e 46 75
e 46 78
e 46 81
e 46 91
e 46 120
e 47 50
e 47 58
e 47 60
e 47 64
e 47 69
e 47 80
e 47 88
e 47 91
e 47 101
e 47 107
e 47 110
e 47 118
e 48 52
e 48 58
e 48 71
e 48 81
e 48 84
e 48 89
e 48 91
e 48 93
e 48 119
e 49 52
e 49 69
e 49 99
e 49 105
e 49 110
e 50 87
e 50 119
e 51 55
e 51 60
e 51 86
e 51 90
e 51 93
e 51 110
e 51 125
e 52 62
e 52 65
e 52 70
e 52 77
e 52 91
e 52 95
e 52 105
e 52 121
e 53 67
e 53 97
e 53 104
e 53 115
e 53 117
e 53 119
e 53 124
e 53 125
e 54 62
e 54 75
e 54 76
e 54 81
e 54 94
e 54 99
e 54 103
e 54 123
e 55 62
e 55 66
e 55 77
e 55 114
e 55 124
e 55 125
e 56 65
e 56 75
e 56 82
e 56 112
e 56 118
e 57 59
e 57 66
e 57 71
e 57 77
e 57 84
e 57 121
e 58 69
e 58 90
e 58 94
e 58 96
e 58 98
e 58 99
e 58 123
e 59 121
e 60 62
e 60 84
e 60 97
e 60 103
e 60 111
e 60 116
e 61 76
e 61 82
e 61 102
e 61 107
e 62 63
e 62 79
e 62 103
e 62 117
e 62 122
e 63 67
e 63 73
e 63 75
e 63 98
e 63 103
e 63 109
e 63 117
e 63 123
e 64 65
e 64 71
e 64 77
e 64 87
e 64 90
e 64 93
e 64 96
e 64 107
e 64 109
e 65 79
e 65 93
e 65 113
e 65 114
e 66 75
e 66 85
e 66 100
e 67 70
e 67 88
e 67 102
e 67 116
e 67 119
e 67 125
e 68 75
e 68 76
e 68 86
e 68 105
e 68 108
e 68 119
e 69 74
e 69 78
e 69 112
e 69 120
e 70 73
e 70 92
e 70 98
e 70 112
e 70 122
e 71 72
e 71 77
e 71 90
e 71 92
e 71 97
e 71 100
e 71 103
e 71 117
e 72 74
e 72 77
e 72 84
e 72 96
e 72 107
e 72 111
e 72 115
e 72 117
e 72 119
e 72 125
e 73 76
e 73 90
e 73 104
e 73 106
e 73 118
e 73 125
e 74 81
e 74 85
e 74 101
e 74 107
e 74 123
e 75 80
e 75 86
e 75 93
e 75 96
e 75 104
e 75 105
e 75 106
e 75 113
e 76 87
e 76 88
e 76 92
e 76 99
e 76 124
e 77 118
e 77 119
e 78 91
e 78 110
e 78 111
e 78 117
e 78 125
e 79 85
e 79 108
e 79 118
e 80 87
e 80 97
e 80 99
e 80 104
e 80 114
e 80 115
e 80 118
e 80 125
e 81 89
e 82 102
e 82 114
e 83 86
e 83 89
e 83 96
e 83 103
e 83 121
e 84 107
e 84 113
e 84 115
e 84 117
e 84 125
e 85 92
e 85 95
e 85 109
e 85 111
e 85 117
e 85 119
e 85 125
e 86 87
e 86 113
e 86 124
e 87 91
e 87 97
e 87 103
e 87 112
e 88 90
e 88 97
e 88 107
e 88 112
e 89 107
e 89 122
e 89 123
e 90 99
e 90 103
e 90 117
e 90 125
e 91 97
e 92 98
e 92 104
e 92 116
e 93 97
e 93 99
e 94 96
e 94 106
e 95 96
e 95 117
e 96 108
e 96 119
e 97 104
e 97 109
e 97 114
e 97 115
e 98 100
e 98 105
e 98 117
e 100 105
e 100 115
e 100 122
e 101 105
e 102 118
e 102 120
e 103 108
e 104 111
e 104 113
e 104 118
e 105 108
e 105 109
e 105 110
e 105 120
e 105 124
e 106 120
e 107 115
e 108 110
e 108 122
e 110 113
e 110 116
e 110 119
e 113 114
e 113 123
e 114 115
e 114 123
e 115 118
e 115 120
e 119 124
e 120 122
e 120 125
e 122 124
e 124 125
n 1 6257959
n 2 4221170
n 3 8029079
n 4 2981386
n 5 3807909
n 6 7615818
n 7 5933253
n 8 4073577
n 9 9800200
n 10 5726623
n 11 6582664
n 12 6169403
n 13 7409187
n 14 6021809
n 15 5047693
n 16 7409187
n 17 5726622
n 18 2331975
n 19 6376033
n 20 2302456
n 21 5667585
n 22 3807909
n 23 4486838
n 24 5726622
n 25 5726623
n 26 5726623
n 27 6169403
n 28 5962772
n 29 4486838
n 30 4014539
n 31 5490473
n 32 8147154
n 33 3542241
n 34 7025444
n 35 5195286
n 36 8294747
n 37 10036349
n 38 7379668
n 39 9150789
n 40 7232075
n 41 6966407
n 42 1003634
n 43 8029079
n 44 7615818
n 45 5726623
n 46 1653045
n 47 4014539
n 48 5726622
n 49 7379668
n 50 7173038
n 51 9534532
n 52 5962772
n 53 1298821
n 54 4604913
n 55 1653045
n 56 8294747
n 57 7615818
n 58 6257959
n 59 5047693
n 60 2538606
n 61 3630797
n 62 7232075
n 63 4486838
n 64 4486838
n 65 8029079
n 66 9564050
n 67 9298382
n 68 4752506
n 69 4841062
n 70 7881486
n 71 2538606
n 72 3571759
n 73 3630797
n 74 2302456
n 75 7232075
n 76 5726622
n 77 7025444
n 78 10036349
n 79 9150789
n 80 3630797
n 81 4044058
n 82 8885121
n 83 7615818
n 84 7232075
n 85 2978211
n 86 4221170
n 87 6198921
n 88 7438706
n 89 7409187
n 90 1712083
n 91 5490473
n 92 3807909
n 93 3424166
n 94 6405552
n 95 10478892
n 96 4516357
n 97 5490473
n 98 5490473
n 99 6848332
n 100 7615818
n 101 13165329
n 102 4663950
n 103 5342880
n 104 6316996
n 105 3837427
n 106 6139884
n 107 4044058
n 108 8029079
n 109 11689395
n 110 5313361
n 111 7143519
n 112 5490473
n 113 3424166
n 114 5726622
n 115 2331975
n 116 7232075
n 117 3722764
n 118 7232075
n 119 6582664
n 120 8029079
n 121 4516357
n 122 9150789
n 123 5726623
n 124 5726623
n 125 1918713
